50
6411

374 610
879 972
61 555
460 886
366 238
872 499
940 711
450 532
617 440
900 336
180 715
296 878
728 482
907 188
348 372
762 785
946 821
769 336
902 573
150 301
255 907
859 638
70 912
315 424
149 352
457 404
63 104
400 264
440 578
116 302
193 604
495 938
152 742
882 776
710 712
464 713
964 984
204 628
985 21
184 218
109 296
314 868
681 869
9 896
176 817
126 863
39 307
452 642
895 914
443 59
